Minimize

10 x_0 + 150 x_1 + 150 x_2 + 100 x_3 + 120 x_4


Subject To

a0: 5 + 4 + 4 + 2 + 5 - 3 x_0 - 3 x_1 - 3 x_2 - 3 x_3 - 3 x_4 <= 0
b0: x_0 + x_1 >= 1
b1: x_0 + x_1 >= 1
b2: x_2 >= 1
b3: x_3 + x_4 >= 1
b4: x_3 + x_4 >= 1
c0: 10 x_0 + 150 x_1 <= 150
c1: 10 x_0 + 150 x_1 <= 150
c2: 150 x_2 <= 150
c3: 100 x_3 + 120 x_4 <= 150
c4: 100 x_3 + 120 x_4 <= 150




Binary

x_0 x_1 x_2 x_3 x_4

 


End
